WARNING: for repeatability, setting FPU to use double precision
============================[ Problem Statistics ]=============================
|                                                                             |
|  Number of variables:            50                                         |
|  Number of clauses:             218                                         |
|  Parse time:                   0.00 s                                       |
|                                                                             |
============================[ Search Statistics ]==============================
| Conflicts |          ORIGINAL         |          LEARNT          | Progress |
|           |    Vars  Clauses Literals |    Limit  Clauses Lit/Cl |          |
===============================================================================
===============================================================================
restarts              : 1
conflicts             : 92             (59818 /sec)
decisions             : 110            (0.00 % random) (71521 /sec)
propagations          : 1180           (767230 /sec)
conflict literals     : 357            (19.41 % deleted)
Memory used           : 20.00 MB
CPU time              : 0.001538 s

UNSATISFIABLE
